# Solution for model F-JSSP-SDST
# Objective value = 2.7703999975216218e+04
B0(13) 0
B1(23) 0
B2(35) 1
B3(28) 0
B4(25) 0
B5(30) 1
B6(28) 0
B7(41) 1
B8(30) 0
B9(28) 1
B10(19) 0
B11(13) 1
B12(33) 0
B13(33) 0
B14(24) 1
B15(39) 0
B16(33) 1
B17(33) 0
B18(38) 0
B19(19) 1
B20(12) 0
B21(24) 1
B22(33) 0
B23(35) 0
B24(27) 1
B25(28) 0
B26(41) 0
B27(31) 1
B28(30) 0
B29(19) 1
B30(12) 1
B31(24) 0
B32(34) 0
B33(38) 1
B34(29) 1
B35(31) 0
B36(37) 0
B37(30) 1
B38(22) 0
B39(34) 0
B40(12) 1
B41(33) 1
B42(29) 0
B43(39) 0
B44(40) 0
B45(31) 1
B46(23) 0
B47(19) 1
B48(30) 0
B49(26) 1
B50(34) 0
B51(26) 0
B52(26) 0
B53(34) 1
B54(39) 0
B55(40) 1
B56(33) 0
B57(31) 0
B58(23) 0
B59(30) 1
B60(33) 1
B61(25) 0
B62(34) 1
B63(37) 0
B64(38) 1
B65(33) 0
B66(33) 0
B67(19) 0
B68(36) 1
B69(28) 1
B70(34) 0
B71(32) 1
B72(40) 0
B73(40) 0
B74(32) 0
B75(31) 1
B76(30) 1
B77(19) 0
B78(25) 1
B79(33) 0
B80(33) 1
B81(28) 0
B82(40) 1
B83(32) 0
B84(31) 0
B85(19) 1
B86(28) 1
B87(34) 0
B88(32) 1
B89(40) 0
B90(40) 1
B91(32) 0
B92(31) 0
B93(30) 1
B94(19) 0
B95(25) 1
B96(33) 0
B97(33) 1
B98(28) 0
B99(40) 1
B100(32) 0
B101(31) 0
B102(19) 1
B103(2) 0
B104(2) 0
B105(2) 0
B106(2) 0
B107(2) 0
B108(2) 1
B109(2) 0
B110(2) 0
B111(2) 0
B112(2) 0
B113(2) 0
B114(2) 0
B115(2) 0
B116(2) 0
B117(2) 0
B118(2) 0
B119(2) 0
B120(2) 0
B121(2) 0
B122(2) 0
B123(2) 0
B124(2) 0
B125(2) 0
B126(2) 0
B127(2) 0
B128(2) 0
B129(2) 0
B130(2) 0
B131(2) 0
B132(2) 0
B133(2) 0
B134(2) 0
B135(2) 0
B136(2) 0
B137(2) 0
B138(2) 0
B139(2) 0
B140(2) 0
B141(2) 0
B142(2) 0
B143(2) 0
B144(2) 0
B145(2) 0
B146(2) 0
B147(2) 0
B148(2) 0
B149(2) 0
B150(2) 0
B151(2) 0
B152(2) 0
B153(2) 0
B154(2) 0
B155(2) 0
B156(2) 0
B157(2) 0
B158(2) 0
B159(2) 0
B160(2) 0
B161(2) 0
B162(2) 0
B163(2) 0
B164(2) 0
B165(2) 0
B166(2) 1
B167(2) 0
B168(2) 0
B169(2) 1
B170(2) 1
B171(2) 1
B172(2) 0
B173(2) 0
B174(2) 0
B175(2) 0
B176(2) 0
B177(2) 0
B178(2) 1
B179(2) 0
B180(2) 0
B181(2) 0
B182(2) 0
B183(2) 1
B184(2) 0
B185(2) 0
B186(2) 0
B187(2) 0
B188(2) 0
B189(2) 0
B190(2) 0
B191(2) 0
B192(2) 0
B193(2) 1
B194(2) 0
B195(2) 0
B196(2) 0
B197(2) 0
B198(2) 0
B199(2) 0
B200(2) 0
B201(2) 1
B202(2) 0
B203(2) 0
B204(2) 0
B205(2) 0
B206(2) 0
B207(2) 1
B208(2) 1
B209(2) 1
B210(2) 0
B211(2) 0
B212(2) 0
B213(2) 0
B214(2) 0
B215(2) 0
B216(2) 0
B217(2) 0
B218(2) 0
B219(2) 0
B220(2) 0
B221(2) 0
B222(2) 0
B223(2) 0
B224(2) 0
B225(2) 0
B226(2) 1
B227(2) 0
B228(2) 1
B229(2) 0
B230(2) 0
B231(2) 0
B232(2) 0
B233(2) 0
B234(2) 0
B235(2) 0
B236(2) 0
B237(2) 0
B238(2) 0
B239(2) 0
B240(2) 1
B241(2) 0
B242(2) 0
B243(2) 0
B244(2) 0
B245(2) 0
B246(2) 0
B247(2) 1
B248(2) 0
B249(2) 0
B250(2) 0
B251(2) 0
B252(2) 0
B253(2) 0
B254(2) 1
B255(2) 0
B256(2) 0
B257(2) 0
B258(2) 1
B259(2) 0
B260(2) 0
B261(2) 0
B262(2) 0
B263(2) 1
B264(2) 0
B265(2) 0
B266(2) 1
B267(2) 0
B268(2) 0
B269(2) 0
B270(2) 0
B271(2) 0
B272(2) 1
B273(2) 0
B274(2) 0
B275(2) 0
B276(2) 0
B277(2) 0
B278(2) 0
B279(2) 0
B280(2) 0
B281(2) 0
B282(2) 0
B283(2) 0
B284(2) 0
B285(2) 1
B286(2) 0
B287(2) 0
B288(2) 0
B289(2) 0
B290(2) 0
B291(2) 0
B292(2) 0
B293(2) 0
B294(2) 0
B295(2) 0
B296(2) 0
B297(2) 0
B298(2) 0
B299(2) 0
B300(2) 0
B301(2) 0
B302(2) 0
B303(2) 1
B304(2) 1
B305(2) 0
B306(2) 0
B307(2) 0
B308(2) 1
B309(2) 0
B310(2) 0
B311(2) 0
B312(2) 1
B313(2) 0
B314(2) 0
B315(2) 0
B316(2) 0
B317(2) 0
B318(2) 0
B319(2) 0
B320(2) 0
B321(2) 1
B322(2) 0
B323(2) 0
B324(2) 0
B325(2) 0
B326(2) 0
B327(2) 0
B328(2) 0
B329(2) 0
B330(2) 0
B331(2) 0
B332(2) 0
B333(2) 0
B334(2) 0
B335(2) 0
B336(2) 0
B337(2) 0
B338(2) 0
B339(2) 0
B340(2) 0
B341(2) 0
B342(2) 0
B343(2) 0
B344(2) 0
B345(2) 0
B346(2) 0
B347(2) 0
B348(2) 0
B349(2) 0
B350(2) 0
B351(2) 0
B352(2) 0
B353(2) 0
B354(2) 0
B355(2) 0
B356(2) 0
B357(2) 0
B358(2) 0
B359(2) 0
B360(2) 0
B361(2) 0
B362(2) 0
B363(2) 0
B364(2) 0
B365(2) 1
B366(2) 0
B367(2) 0
B368(2) 0
B369(2) 0
B370(2) 0
B371(2) 1
B372(2) 0
B373(2) 0
B374(2) 0
B375(2) 0
B376(2) 0
B377(2) 1
B378(2) 1
B379(2) 0
B380(2) 0
B381(2) 0
B382(2) 0
B383(2) 0
B384(2) 0
B385(2) 0
B386(2) 0
B387(2) 0
B388(2) 0
B389(2) 0
B390(2) 0
B391(2) 0
B392(2) 0
B393(2) 0
B394(2) 0
B395(2) 0
B396(2) 0
B397(2) 0
B398(2) 0
B399(2) 0
B400(2) 0
B401(2) 0
B402(2) 0
B403(2) 0
B404(2) 0
B405(2) 0
B406(2) 0
B407(2) 0
B408(2) 0
B409(2) 0
B410(2) 0
B411(2) 0
B412(2) 0
B413(2) 0
B414(2) 0
B415(2) 0
B416(2) 0
B417(2) 0
B418(2) 0
B419(2) 0
B420(2) 0
B421(2) 0
B422(2) 0
B423(2) 0
B424(2) 0
B425(2) 0
B426(2) 0
B427(2) 0
B428(2) 0
B429(2) 0
B430(2) 0
B431(2) 0
B432(2) 0
B433(2) 0
B434(2) 0
B435(2) 0
B436(2) 0
B437(2) 0
B438(2) 0
B439(2) 0
B440(2) 0
B441(2) 0
B442(2) 0
B443(2) 0
B444(2) 0
B445(2) 0
B446(2) 0
B447(2) 0
B448(2) 0
B449(2) 0
B450(2) 0
B451(2) 0
B452(2) 1
B453(2) 0
B454(2) 0
B455(2) 0
B456(2) 0
B457(2) 0
B458(2) 1
B459(2) 0
B460(2) 0
B461(2) 0
B462(2) 0
B463(2) 1
B464(2) 0
B465(2) 0
B466(2) 0
B467(2) 0
B468(2) 0
B469(2) 0
B470(2) 1
B471(2) 0
B472(2) 0
B473(2) 0
B474(2) 0
B475(2) 0
B476(2) 0
B477(2) 0
B478(2) 0
B479(2) 0
B480(2) 1
B481(2) 0
B482(2) 0
B483(2) 0
B484(2) 0
B485(2) 0
B486(2) 1
B487(2) 0
B488(2) 0
B489(2) 0
B490(2) 1
B491(2) 1
B492(2) 0
B493(2) 1
B494(2) 0
B495(2) 1
B496(2) 0
B497(2) 0
B498(2) 0
B499(2) 0
B500(2) 1
B501(2) 0
B502(2) 0
B503(2) 0
B504(2) 0
B505(2) 0
B506(2) 0
B507(2) 0
B508(2) 0
B509(2) 0
B510(2) 0
B511(2) 0
B512(2) 0
B513(2) 0
B514(2) 0
B515(2) 0
B516(2) 0
B517(2) 0
B518(2) 0
B519(2) 0
B520(2) 0
B521(2) 0
B522(2) 0
B523(2) 0
B524(2) 0
B525(2) 0
B526(2) 0
B527(2) 0
B528(2) 0
B529(2) 0
B530(2) 0
B531(2) 0
B532(2) 0
B533(2) 0
B534(2) 0
B535(2) 0
B536(2) 0
B537(2) 0
B538(2) 0
B539(2) 0
B540(2) 0
B541(2) 0
B542(2) 0
B543(2) 0
B544(2) 0
B545(2) 0
B546(2) 0
B547(2) 0
B548(2) 0
B549(2) 0
B550(2) 0
B551(2) 0
B552(2) 0
B553(2) 0
B554(2) 0
B555(2) 0
B556(2) 0
B557(2) 0
B558(2) 0
B559(2) 0
B560(2) 0
B561(2) 0
B562(2) 0
B563(2) 0
B564(2) 0
B565(2) 0
B566(2) 0
B567(2) 0
B568(2) 0
B569(2) 0
B570(2) 0
B571(2) 0
B572(2) 0
B573(2) 0
B574(2) 0
B575(2) 0
B576(2) 0
B577(2) 0
B578(2) 1
B579(2) 0
B580(2) 0
B581(2) 0
B582(2) 0
B583(2) 1
B584(2) 0
B585(2) 0
B586(2) 0
B587(2) 0
B588(2) 0
B589(2) 0
B590(2) 0
B591(2) 0
B592(2) 0
B593(2) 0
B594(2) 0
B595(2) 0
B596(2) 0
B597(2) 1
B598(2) 0
B599(2) 0
B600(2) 0
B601(2) 0
B602(2) 0
B603(2) 0
B604(2) 0
B605(2) 0
B606(2) 0
B607(2) 0
B608(2) 0
B609(2) 0
B610(2) 0
B611(2) 0
B612(2) 0
B613(2) 0
B614(2) 0
B615(2) 0
B616(2) 0
B617(2) 0
B618(2) 0
B619(2) 0
B620(2) 0
B621(2) 0
B622(2) 0
B623(2) 0
B624(2) 0
B625(2) 0
B626(2) 0
B627(2) 0
B628(2) 0
B629(2) 0
B630(2) 0
B631(2) 0
B632(2) 0
B633(2) 0
B634(2) 0
B635(2) 0
B636(2) 0
B637(2) 0
B638(2) 0
B639(2) 0
B640(2) 0
B641(2) 0
B642(2) 0
B643(2) 0
B644(2) 0
B645(2) 0
B646(2) 0
B647(2) 0
B648(2) 0
B649(2) 0
B650(2) 0
B651(2) 0
B652(2) 0
B653(2) 0
B654(2) 0
B655(2) 0
B656(2) 0
B657(2) 0
B658(2) 0
B659(2) 0
B660(2) 0
B661(2) 0
B662(2) 0
B663(2) 0
B664(2) 0
B665(2) 0
B666(2) 0
B667(2) 0
B668(2) 0
B669(2) 0
B670(2) 0
B671(2) 0
B672(2) 0
B673(2) 0
B674(2) 0
B675(2) 0
B676(2) 0
B677(2) 1
B678(2) 0
B679(2) 1
B680(2) 0
B681(2) 0
B682(2) 0
B683(2) 0
B684(2) 0
B685(2) 0
B686(2) 0
B687(2) 0
B688(2) 0
B689(2) 0
B690(2) 0
B691(2) 0
B692(2) 0
B693(2) 0
B694(2) 0
B695(2) 1
B696(2) 0
B697(2) 0
B698(2) 0
B699(2) 0
B700(2) 0
B701(2) 0
B702(2) 1
B703(2) 0
B704(2) 0
B705(2) 0
B706(2) 0
B707(2) 1
B708(2) 0
B709(2) 0
B710(2) 0
B711(2) 0
B712(2) 0
B713(2) 0
B714(2) 0
B715(2) 0
B716(2) 0
B717(2) 0
B718(2) 0
B719(2) 0
B720(2) 0
B721(2) 0
B722(2) 0
B723(2) 0
B724(2) 0
B725(2) 1
B726(2) 1
B727(2) 0
B728(2) 0
B729(2) 0
B730(2) 0
B731(2) 0
B732(2) 0
B733(2) 0
B734(2) 0
B735(2) 0
B736(2) 0
B737(2) 0
B738(2) 0
B739(2) 0
B740(2) 0
B741(2) 0
B742(2) 0
B743(2) 0
B744(2) 0
B745(2) 1
B746(2) 1
B747(2) 0
B748(2) 0
B749(2) 0
B750(2) 0
C751(13) 0
C752(23) 0
C753(35) 0
C754(30) 0
C755(26) 0
C756(32) 100
C757(30) 0
C758(44) 2.7299999999999977e+02
C759(32) 0
C760(29) 4.3299999999988540e+02
C761(21) 0
C762(13) 252
C763(33) 0
C764(34) 0
C765(26) 5.7199999928744546e+02
C766(40) 0
C767(34) 6.8399999856176964e+02
C768(34) 0
C769(39) 0
C770(21) 7.7899999856168870e+02
C771(12) 0
C772(24) -7.1247894402062474e-07
C773(34) 0
C774(36) 0
C775(28) 6.1999999292469106e+01
C776(29) 0
C777(43) 0
C778(33) 167
C779(31) 0
C780(21) 3.2000000000000068e+02
C781(12) 0
C782(24) 0
C783(35) 0
C784(39) 87
C785(30) 7.1599999928746911e+02
C786(32) 0
C787(39) 0
C788(31) 1.0329999978331693e+03
C789(22) 0
C790(34) 0
C791(12) 104
C792(34) 2.3999999996927704e+02
C793(30) 0
C794(40) 0
C795(41) 0
C796(33) 3.3499999928388570e+02
C797(25) 0
C798(21) 498.99999999994
C799(31) 0
C800(26) 7.6999999287469109e+01
C801(34) 0
C802(26) 0
C803(28) 0
C804(36) 2.7699999970723729e+02
C805(42) 0
C806(41) 4.4899999999999977e+02
C807(35) 0
C808(33) 0
C809(25) 0
C810(31) 6.5499999999975626e+02
C811(33) 1.1599999971223730e+02
C812(25) 0
C813(35) 4.1899999952748254e+02
C814(39) 0
C815(39) 5.8299999999999977e+02
C816(35) 0
C817(35) 0
C818(21) 0
C819(37) 795
C820(28) 1.8799999929080244e+02
C821(34) 0
C822(33) 4.3999999856179875e+02
C823(41) 0
C824(42) 0
C825(34) 0
C826(34) 7.1999999999975626e+02
C827(31) 9.1199999999975626e+02
C828(21) 0
C829(25) 2.3599999928746911e+02
C830(33) 0
C831(34) 5.5599999952745384e+02
C832(30) 0
C833(41) 7.4199999999999989e+02
C834(33) 0
C835(32) 0
C836(20) 9.4699999856149952e+02
C837(28) 4.4999999928746911e+02
C838(34) 0
C839(33) 7.9599999783323074e+02
C840(41) 0
C841(42) 1.0199999978332107e+03
C842(34) 0
C843(34) 0
C844(31) 1.1649999978329652e+03
C845(21) 0
C846(25) 4.0199999928746911e+02
C847(33) 0
C848(34) 7.4899999975332889e+02
C849(30) 0
C850(41) 950
C851(33) 0
C852(32) 0
C853(20) 1.1289999985613540e+03
C854(1) 2.7703999975216218e+04
